<instance format="XCSP3" type="COP">
  <variables>
    <array id="x" size="[60]"> 0 1 </array>
  </variables>
  <constraints>
    <sum>
      <list> x[] </list>
      <coeffs> 49 1 38 7 26 6 16 55 15 16 49 35 47 25 9 19 8 9 5 17 58 54 9 8 48 62 2 62 18 60 23 52 59 45 12 36 55 18 55 60 3 29 18 19 28 25 53 30 11 55 29 36 52 51 36 23 15 8 47 51 </coeffs>
      <condition> (le,250) </condition>
    </sum>
  </constraints>
  <objectives>
    <maximize type="sum">
      <list> x[] </list>
      <coeffs> 87 89 27 3 10 36 78 2 37 10 28 45 48 76 60 3 76 92 99 24 46 84 12 25 77 75 99 55 83 68 2 66 95 44 64 84 85 91 24 83 87 87 67 47 71 93 94 77 50 96 30 49 11 68 39 96 98 8 84 23 </coeffs>
    </maximize>
  </objectives>
</instance>
